33
100
70	1
64	1
63	3
60	1
59	1
57	3
56	1
55	1
54	1
53	1
51	2
50	3
48	1
47	2
46	3
44	2
42	1
38	1
37	1
35	2
34	1
33	1
32	1
31	1
29	1
27	1
26	3
25	1
24	3
20	1
16	1
11	2
10	1
